p tw 50 124
e 0 6
e 0 7
e 0 22
e 0 26
e 0 38
e 1 18
e 1 21
e 1 28
e 1 30
e 1 38
e 1 40
e 1 45
e 2 19
e 2 22
e 2 25
e 2 32
e 2 33
e 2 47
e 3 44
e 4 14
e 4 18
e 4 25
e 4 48
e 5 7
e 5 14
e 5 15
e 5 18
e 5 21
e 5 35
e 6 10
e 6 30
e 6 33
e 6 34
e 6 35
e 6 38
e 6 47
e 7 12
e 7 26
e 7 40
e 8 20
e 9 20
e 9 21
e 9 27
e 9 42
e 10 40
e 10 49
e 11 24
e 11 43
e 12 21
e 12 29
e 12 39
e 12 42
e 13 26
e 13 27
e 13 47
e 14 22
e 14 26
e 14 27
e 14 31
e 14 34
e 14 37
e 14 43
e 15 21
e 15 25
e 15 26
e 15 27
e 15 29
e 15 30
e 15 39
e 15 43
e 16 38
e 16 42
e 17 21
e 17 27
e 17 30
e 17 34
e 17 46
e 17 49
e 18 22
e 18 41
e 18 44
e 19 25
e 19 47
e 20 23
e 20 34
e 21 28
e 21 33
e 21 40
e 21 42
e 21 45
e 21 47
e 22 26
e 22 41
e 23 45
e 24 49
e 25 28
e 25 34
e 25 37
e 25 42
e 26 29
e 26 35
e 26 48
e 27 37
e 28 36
e 28 41
e 28 48
e 30 42
e 30 46
e 32 35
e 32 38
e 33 41
e 33 42
e 33 44
e 34 39
e 34 42
e 34 46
e 34 47
e 35 44
e 35 46
e 36 37
e 37 46
e 38 48
e 39 43
e 42 43
